problems/GracefulHelms/GracefulHelms-models/compact/O2/lingeling/model-n04-solution000001.solution
language Essence 1.3

letting colouring be function(0 --> 12, 1 --> 11, 2 --> 6, 3 --> 2, 4 --> 3, 5 --> 4, 6 --> 9, 7 --> 10, 8 --> 0)
letting edgeID be
        function(0 --> 1, 1 --> 5, 2 --> 4, 3 --> 10, 4 --> 9, 5 --> 7, 6 --> 3, 7 --> 8, 8 --> 12, 9 --> 11, 10 --> 6,
                 11 --> 2)
